\ LP format - for model browsing. Use MPS format to capture full model detail.
Minimize
  - 4 x1
Subject To
 constr(0): 2 x0p - 2 x0n + 5 x1 <= 8
 constr(1): 5 x0p - 5 x0n + 4 x1 = -0
 constr(2): x0p - x0n - 4 x1 <= -0
Bounds
 x0p = 0
 x0n <= 5
 x1 <= 2
End
